(set-info :smt-lib-version 2.6)
(set-logic QF_NIA)
(set-info :source |
Generated by: Cristina Borralleras, Daniel Larraz, Albert Oliveras, Enric Rodriguez-Carbonell, Albert Rubio
Generated on: 2017-04-27
Generator: VeryMax
Application: Termination proving
Target solver: barcelogic
|)
(set-info :license "https://creativecommons.org/licenses/by/4.0/")
(set-info :category "industrial")
(set-info :status unknown)
(declare-fun Nl6arg11 () Int)
(declare-fun Nl6arg21 () Int)
(declare-fun Nl6arg31 () Int)
(declare-fun Nl6arg12 () Int)
(declare-fun Nl6arg22 () Int)
(declare-fun Nl6arg32 () Int)
(declare-fun lam0n0 () Int)
(declare-fun lam0n1 () Int)
(declare-fun lam0n2 () Int)
(declare-fun lam0n3 () Int)
(declare-fun lam0n4 () Int)
(declare-fun lam0n5 () Int)
(declare-fun lam0n6 () Int)
(declare-fun lam0n7 () Int)
(declare-fun lam0n8 () Int)
(declare-fun lam0n9 () Int)
(declare-fun lam0n10 () Int)
(declare-fun lam0n11 () Int)
(declare-fun lam0n12 () Int)
(declare-fun lam0n13 () Int)
(declare-fun lam0n14 () Int)
(declare-fun lam0n15 () Int)
(declare-fun lam0n16 () Int)
(declare-fun lam0n17 () Int)
(declare-fun lam0n18 () Int)
(declare-fun lam0n19 () Int)
(declare-fun Nl6CT1 () Int)
(declare-fun lam1n0 () Int)
(declare-fun lam1n1 () Int)
(declare-fun lam1n2 () Int)
(declare-fun lam1n3 () Int)
(declare-fun lam1n4 () Int)
(declare-fun lam1n5 () Int)
(declare-fun lam1n6 () Int)
(declare-fun lam1n7 () Int)
(declare-fun lam1n8 () Int)
(declare-fun lam1n9 () Int)
(declare-fun lam1n10 () Int)
(declare-fun lam1n11 () Int)
(declare-fun lam1n12 () Int)
(declare-fun lam1n13 () Int)
(declare-fun lam1n14 () Int)
(declare-fun lam1n15 () Int)
(declare-fun lam1n16 () Int)
(declare-fun lam1n17 () Int)
(declare-fun lam1n18 () Int)
(declare-fun lam1n19 () Int)
(declare-fun Nl6CT2 () Int)
(declare-fun lam2n0 () Int)
(declare-fun lam2n1 () Int)
(declare-fun lam2n2 () Int)
(declare-fun lam2n3 () Int)
(declare-fun lam2n4 () Int)
(declare-fun lam2n5 () Int)
(declare-fun lam2n6 () Int)
(declare-fun lam2n7 () Int)
(declare-fun lam2n8 () Int)
(declare-fun lam2n9 () Int)
(declare-fun lam2n10 () Int)
(declare-fun lam2n11 () Int)
(declare-fun lam2n12 () Int)
(declare-fun lam2n13 () Int)
(declare-fun lam2n14 () Int)
(declare-fun lam2n15 () Int)
(declare-fun lam2n16 () Int)
(declare-fun lam2n17 () Int)
(declare-fun lam2n18 () Int)
(declare-fun lam2n19 () Int)
(declare-fun lam2n20 () Int)
(declare-fun lam2n21 () Int)
(declare-fun lam3n0 () Int)
(declare-fun lam3n1 () Int)
(declare-fun lam3n2 () Int)
(declare-fun lam3n3 () Int)
(declare-fun lam3n4 () Int)
(declare-fun lam3n5 () Int)
(declare-fun lam3n6 () Int)
(declare-fun lam3n7 () Int)
(declare-fun lam3n8 () Int)
(declare-fun lam3n9 () Int)
(declare-fun lam3n10 () Int)
(declare-fun lam3n11 () Int)
(declare-fun lam3n12 () Int)
(declare-fun lam3n13 () Int)
(declare-fun lam3n14 () Int)
(declare-fun lam3n15 () Int)
(declare-fun lam3n16 () Int)
(declare-fun lam3n17 () Int)
(declare-fun lam3n18 () Int)
(declare-fun lam3n19 () Int)
(declare-fun lam3n20 () Int)
(declare-fun lam3n21 () Int)
(declare-fun lam4n0 () Int)
(declare-fun lam4n1 () Int)
(declare-fun lam4n2 () Int)
(declare-fun lam4n3 () Int)
(declare-fun lam4n4 () Int)
(declare-fun lam4n5 () Int)
(declare-fun lam4n6 () Int)
(declare-fun lam4n7 () Int)
(declare-fun lam4n8 () Int)
(declare-fun lam4n9 () Int)
(declare-fun lam4n10 () Int)
(declare-fun lam4n11 () Int)
(declare-fun lam4n12 () Int)
(declare-fun lam4n13 () Int)
(declare-fun lam4n14 () Int)
(declare-fun lam4n15 () Int)
(declare-fun lam4n16 () Int)
(declare-fun lam4n17 () Int)
(declare-fun lam4n18 () Int)
(declare-fun lam4n19 () Int)
(declare-fun lam4n20 () Int)
(declare-fun lam4n21 () Int)
(declare-fun lam5n0 () Int)
(declare-fun lam5n1 () Int)
(declare-fun lam5n2 () Int)
(declare-fun lam5n3 () Int)
(declare-fun lam5n4 () Int)
(declare-fun lam5n5 () Int)
(declare-fun lam5n6 () Int)
(declare-fun lam5n7 () Int)
(declare-fun lam5n8 () Int)
(declare-fun lam5n9 () Int)
(declare-fun lam5n10 () Int)
(declare-fun lam5n11 () Int)
(declare-fun lam5n12 () Int)
(declare-fun lam5n13 () Int)
(declare-fun lam5n14 () Int)
(declare-fun lam5n15 () Int)
(declare-fun lam5n16 () Int)
(declare-fun lam5n17 () Int)
(declare-fun lam5n18 () Int)
(declare-fun lam5n19 () Int)
(declare-fun lam5n20 () Int)
(declare-fun lam5n21 () Int)
(declare-fun lam6n0 () Int)
(declare-fun lam6n1 () Int)
(declare-fun lam6n2 () Int)
(declare-fun lam6n3 () Int)
(declare-fun lam6n4 () Int)
(declare-fun lam6n5 () Int)
(declare-fun lam6n6 () Int)
(declare-fun lam6n7 () Int)
(declare-fun lam6n8 () Int)
(declare-fun lam6n9 () Int)
(declare-fun lam6n10 () Int)
(declare-fun lam6n11 () Int)
(declare-fun lam6n12 () Int)
(declare-fun lam6n13 () Int)
(declare-fun lam6n14 () Int)
(declare-fun lam6n15 () Int)
(declare-fun lam6n16 () Int)
(declare-fun lam6n17 () Int)
(declare-fun lam6n18 () Int)
(declare-fun lam6n19 () Int)
(declare-fun lam6n20 () Int)
(declare-fun lam7n0 () Int)
(declare-fun lam7n1 () Int)
(declare-fun lam7n2 () Int)
(declare-fun lam7n3 () Int)
(declare-fun lam7n4 () Int)
(declare-fun lam7n5 () Int)
(declare-fun lam7n6 () Int)
(declare-fun lam7n7 () Int)
(declare-fun lam7n8 () Int)
(declare-fun lam7n9 () Int)
(declare-fun lam7n10 () Int)
(declare-fun lam7n11 () Int)
(declare-fun lam7n12 () Int)
(declare-fun lam7n13 () Int)
(declare-fun lam7n14 () Int)
(declare-fun lam7n15 () Int)
(declare-fun lam7n16 () Int)
(declare-fun lam7n17 () Int)
(declare-fun lam7n18 () Int)
(declare-fun lam7n19 () Int)
(declare-fun lam7n20 () Int)
(declare-fun lam8n0 () Int)
(declare-fun lam8n1 () Int)
(declare-fun lam8n2 () Int)
(declare-fun lam8n3 () Int)
(declare-fun lam8n4 () Int)
(declare-fun lam8n5 () Int)
(declare-fun lam8n6 () Int)
(declare-fun lam8n7 () Int)
(declare-fun lam8n8 () Int)
(declare-fun lam8n9 () Int)
(declare-fun lam8n10 () Int)
(declare-fun lam8n11 () Int)
(declare-fun lam8n12 () Int)
(declare-fun lam8n13 () Int)
(declare-fun lam8n14 () Int)
(declare-fun lam8n15 () Int)
(declare-fun lam8n16 () Int)
(declare-fun lam8n17 () Int)
(declare-fun lam8n18 () Int)
(declare-fun lam8n19 () Int)
(declare-fun lam8n20 () Int)
(declare-fun lam9n0 () Int)
(declare-fun lam9n1 () Int)
(declare-fun lam9n2 () Int)
(declare-fun lam9n3 () Int)
(declare-fun lam9n4 () Int)
(declare-fun lam9n5 () Int)
(declare-fun lam9n6 () Int)
(declare-fun lam9n7 () Int)
(declare-fun lam9n8 () Int)
(declare-fun lam9n9 () Int)
(declare-fun lam9n10 () Int)
(declare-fun lam9n11 () Int)
(declare-fun lam9n12 () Int)
(declare-fun lam9n13 () Int)
(declare-fun lam9n14 () Int)
(declare-fun lam9n15 () Int)
(declare-fun lam9n16 () Int)
(declare-fun lam9n17 () Int)
(declare-fun lam9n18 () Int)
(declare-fun lam9n19 () Int)
(declare-fun lam9n20 () Int)
(declare-fun lam10n0 () Int)
(declare-fun lam10n1 () Int)
(declare-fun lam10n2 () Int)
(declare-fun lam10n3 () Int)
(declare-fun lam10n4 () Int)
(declare-fun lam10n5 () Int)
(declare-fun lam10n6 () Int)
(declare-fun lam10n7 () Int)
(declare-fun lam10n8 () Int)
(declare-fun lam10n9 () Int)
(declare-fun lam10n10 () Int)
(declare-fun lam10n11 () Int)
(declare-fun lam10n12 () Int)
(declare-fun lam10n13 () Int)
(declare-fun lam10n14 () Int)
(declare-fun lam10n15 () Int)
(declare-fun lam10n16 () Int)
(declare-fun lam10n17 () Int)
(declare-fun lam10n18 () Int)
(declare-fun lam10n19 () Int)
(declare-fun lam10n20 () Int)
(declare-fun lam10n21 () Int)
(declare-fun lam10n22 () Int)
(declare-fun lam11n0 () Int)
(declare-fun lam11n1 () Int)
(declare-fun lam11n2 () Int)
(declare-fun lam11n3 () Int)
(declare-fun lam11n4 () Int)
(declare-fun lam11n5 () Int)
(declare-fun lam11n6 () Int)
(declare-fun lam11n7 () Int)
(declare-fun lam11n8 () Int)
(declare-fun lam11n9 () Int)
(declare-fun lam11n10 () Int)
(declare-fun lam11n11 () Int)
(declare-fun lam11n12 () Int)
(declare-fun lam11n13 () Int)
(declare-fun lam11n14 () Int)
(declare-fun lam11n15 () Int)
(declare-fun lam11n16 () Int)
(declare-fun lam11n17 () Int)
(declare-fun lam11n18 () Int)
(declare-fun lam11n19 () Int)
(declare-fun lam11n20 () Int)
(declare-fun lam11n21 () Int)
(declare-fun lam11n22 () Int)
(declare-fun lam12n0 () Int)
(declare-fun lam12n1 () Int)
(declare-fun lam12n2 () Int)
(declare-fun lam12n3 () Int)
(declare-fun lam12n4 () Int)
(declare-fun lam12n5 () Int)
(declare-fun lam12n6 () Int)
(declare-fun lam12n7 () Int)
(declare-fun lam12n8 () Int)
(declare-fun lam12n9 () Int)
(declare-fun lam12n10 () Int)
(declare-fun lam12n11 () Int)
(declare-fun lam12n12 () Int)
(declare-fun lam12n13 () Int)
(declare-fun lam12n14 () Int)
(declare-fun lam12n15 () Int)
(declare-fun lam12n16 () Int)
(declare-fun lam12n17 () Int)
(declare-fun lam12n18 () Int)
(declare-fun lam12n19 () Int)
(declare-fun lam12n20 () Int)
(declare-fun lam12n21 () Int)
(declare-fun lam12n22 () Int)
(declare-fun lam13n0 () Int)
(declare-fun lam13n1 () Int)
(declare-fun lam13n2 () Int)
(declare-fun lam13n3 () Int)
(declare-fun lam13n4 () Int)
(declare-fun lam13n5 () Int)
(declare-fun lam13n6 () Int)
(declare-fun lam13n7 () Int)
(declare-fun lam13n8 () Int)
(declare-fun lam13n9 () Int)
(declare-fun lam13n10 () Int)
(declare-fun lam13n11 () Int)
(declare-fun lam13n12 () Int)
(declare-fun lam13n13 () Int)
(declare-fun lam13n14 () Int)
(declare-fun lam13n15 () Int)
(declare-fun lam13n16 () Int)
(declare-fun lam13n17 () Int)
(declare-fun lam13n18 () Int)
(declare-fun lam13n19 () Int)
(declare-fun lam13n20 () Int)
(declare-fun lam13n21 () Int)
(declare-fun lam13n22 () Int)
(declare-fun lam14n0 () Int)
(declare-fun lam14n1 () Int)
(declare-fun lam14n2 () Int)
(declare-fun lam14n3 () Int)
(declare-fun lam14n4 () Int)
(declare-fun lam14n5 () Int)
(declare-fun lam14n6 () Int)
(declare-fun lam14n7 () Int)
(declare-fun lam14n8 () Int)
(declare-fun lam14n9 () Int)
(declare-fun lam14n10 () Int)
(declare-fun lam14n11 () Int)
(declare-fun lam14n12 () Int)
(declare-fun lam14n13 () Int)
(declare-fun lam14n14 () Int)
(declare-fun lam14n15 () Int)
(declare-fun lam14n16 () Int)
(declare-fun lam14n17 () Int)
(declare-fun lam14n18 () Int)
(declare-fun lam14n19 () Int)
(declare-fun lam14n20 () Int)
(declare-fun lam14n21 () Int)
(declare-fun lam15n0 () Int)
(declare-fun lam15n1 () Int)
(declare-fun lam15n2 () Int)
(declare-fun lam15n3 () Int)
(declare-fun lam15n4 () Int)
(declare-fun lam15n5 () Int)
(declare-fun lam15n6 () Int)
(declare-fun lam15n7 () Int)
(declare-fun lam15n8 () Int)
(declare-fun lam15n9 () Int)
(declare-fun lam15n10 () Int)
(declare-fun lam15n11 () Int)
(declare-fun lam15n12 () Int)
(declare-fun lam15n13 () Int)
(declare-fun lam15n14 () Int)
(declare-fun lam15n15 () Int)
(declare-fun lam15n16 () Int)
(declare-fun lam15n17 () Int)
(declare-fun lam15n18 () Int)
(declare-fun lam15n19 () Int)
(declare-fun lam15n20 () Int)
(declare-fun lam15n21 () Int)
(declare-fun undef6 () Int)
(declare-fun undef139 () Int)
(declare-fun undef55 () Int)
(declare-fun undef85 () Int)
(declare-fun undef56 () Int)
(declare-fun undef86 () Int)
(declare-fun undef100 () Int)
(declare-fun undef90 () Int)
(declare-fun undef60 () Int)
(declare-fun undef91 () Int)
(declare-fun undef105 () Int)
(declare-fun undef140 () Int)
(declare-fun undef89 () Int)
(declare-fun undef61 () Int)
(declare-fun undef62 () Int)
(declare-fun undef66 () Int)
(declare-fun undef63 () Int)
(declare-fun undef67 () Int)
(declare-fun undef68 () Int)
(declare-fun undef72 () Int)
(declare-fun undef69 () Int)
(declare-fun undef73 () Int)
(declare-fun undef74 () Int)
(declare-fun undef78 () Int)
(declare-fun undef11 () Int)
(declare-fun undef12 () Int)
(declare-fun lam16n0 () Int)
(declare-fun lam16n1 () Int)
(declare-fun lam16n2 () Int)
(declare-fun lam16n3 () Int)
(declare-fun lam16n4 () Int)
(declare-fun lam16n5 () Int)
(declare-fun lam16n6 () Int)
(declare-fun lam16n7 () Int)
(declare-fun lam16n8 () Int)
(declare-fun lam16n9 () Int)
(declare-fun lam16n10 () Int)
(declare-fun lam16n11 () Int)
(declare-fun lam16n12 () Int)
(declare-fun lam16n13 () Int)
(declare-fun lam16n14 () Int)
(declare-fun lam16n15 () Int)
(declare-fun lam16n16 () Int)
(declare-fun lam16n17 () Int)
(declare-fun lam17n0 () Int)
(declare-fun lam17n1 () Int)
(declare-fun lam17n2 () Int)
(declare-fun lam17n3 () Int)
(declare-fun lam17n4 () Int)
(declare-fun lam17n5 () Int)
(declare-fun lam17n6 () Int)
(declare-fun lam17n7 () Int)
(declare-fun lam17n8 () Int)
(declare-fun lam17n9 () Int)
(declare-fun lam17n10 () Int)
(declare-fun lam17n11 () Int)
(declare-fun lam17n12 () Int)
(declare-fun lam17n13 () Int)
(declare-fun lam17n14 () Int)
(declare-fun lam17n15 () Int)
(declare-fun lam17n16 () Int)
(declare-fun lam17n17 () Int)
(assert ( and ( <= ( - 1 ) Nl6arg11 ) ( <= Nl6arg11 1 ) ( <= ( - 1 ) Nl6arg21 ) ( <= Nl6arg21 1 ) ( <= ( - 1 ) Nl6arg31 ) ( <= Nl6arg31 1 ) ( <= ( - 1 ) Nl6arg12 ) ( <= Nl6arg12 1 ) ( <= ( - 1 ) Nl6arg22 ) ( <= Nl6arg22 1 ) ( <= ( - 1 ) Nl6arg32 ) ( <= Nl6arg32 1 ) ))
(assert ( or ( and ( <= ( + undef6 ( * ( - 1 ) undef139 ) ) 0 ) ( <= ( + ( * ( - 1 ) undef6 ) undef55 ) 0 ) ( <= ( + ( * ( - 1 ) undef55 ) undef85 ) 0 ) ( <= ( + ( * ( - 1 ) undef56 ) undef85 ) 0 ) ( <= ( + ( * ( - 1 ) undef56 ) undef86 ) 0 ) ( <= ( + ( * ( - 1 ) undef86 ) undef100 ) 0 ) ( <= ( * ( - 1 ) undef90 ) 0 ) ( <= ( + 1 ( * ( - 1 ) undef6 ) ) 0 ) ( <= ( + 1 ( * ( - 1 ) undef55 ) ) 0 ) ( <= ( + 1 ( * ( - 1 ) undef60 ) ) 0 ) ( <= ( + 1 ( * ( - 1 ) undef85 ) ) 0 ) ( <= ( + 1 undef90 ( * ( - 1 ) undef91 ) ) 0 ) ( <= ( + 1 ( * ( - 1 ) undef100 ) ) 0 ) ( <= ( + 1 ( * ( - 1 ) undef105 ) ) 0 ) ( <= ( + 1 ( * ( - 1 ) undef139 ) ) 0 ) ( <= ( + 1 ( * ( - 1 ) undef140 ) ) 0 ) ( <= ( + 2 ( * ( - 1 ) undef56 ) undef89 ) 0 ) ( <= ( + 2 ( * ( - 1 ) undef86 ) ) 0 ) ( <= ( + 2 ( * ( - 1 ) undef86 ) undef89 ) 0 ) ( <= ( + 3 ( * ( - 1 ) undef56 ) ) 0 ) ( <= ( + ( + ( + ( + Nl6CT1 ( * Nl6arg11 0 ) ) ( * Nl6arg21 0 ) ) ( * Nl6arg31 0 ) ) ( * ( + 0 ( * Nl6arg11 1 ) ) undef55 ) ( * ( + 0 ( * Nl6arg21 1 ) ) undef56 ) ) 0 ) ( <= ( + ( + ( + ( + Nl6CT2 ( * Nl6arg12 0 ) ) ( * Nl6arg22 0 ) ) ( * Nl6arg32 0 ) ) ( * ( + 0 ( * Nl6arg12 1 ) ) undef55 ) ( * ( + 0 ( * Nl6arg22 1 ) ) undef56 ) ) 0 ) ) ( and ( <= ( + undef6 ( * ( - 1 ) undef139 ) ) 0 ) ( <= ( + ( * ( - 1 ) undef6 ) undef61 ) 0 ) ( <= ( + ( * ( - 1 ) undef61 ) undef85 ) 0 ) ( <= ( + ( * ( - 1 ) undef62 ) undef85 ) 0 ) ( <= ( + ( * ( - 1 ) undef62 ) undef86 ) 0 ) ( <= ( + ( * ( - 1 ) undef86 ) undef100 ) 0 ) ( <= ( * ( - 1 ) undef90 ) 0 ) ( <= ( + 1 ( * ( - 1 ) undef6 ) ) 0 ) ( <= ( + 1 ( * ( - 1 ) undef61 ) ) 0 ) ( <= ( + 1 ( * ( - 1 ) undef66 ) ) 0 ) ( <= ( + 1 ( * ( - 1 ) undef85 ) ) 0 ) ( <= ( + 1 ( * ( - 1 ) undef86 ) ) 0 ) ( <= ( + 1 undef90 ( * ( - 1 ) undef91 ) ) 0 ) ( <= ( + 1 ( * ( - 1 ) undef100 ) ) 0 ) ( <= ( + 1 ( * ( - 1 ) undef105 ) ) 0 ) ( <= ( + 1 ( * ( - 1 ) undef139 ) ) 0 ) ( <= ( + 1 ( * ( - 1 ) undef140 ) ) 0 ) ( <= ( + 2 ( * ( - 1 ) undef62 ) undef63 ) 0 ) ( <= ( + 2 ( * ( - 1 ) undef62 ) undef89 ) 0 ) ( <= ( + 2 undef63 ( * ( - 1 ) undef86 ) ) 0 ) ( <= ( + 2 ( * ( - 1 ) undef86 ) undef89 ) 0 ) ( <= ( + 3 ( * ( - 1 ) undef62 ) ) 0 ) ( <= ( + ( + ( + ( + Nl6CT1 ( * Nl6arg11 0 ) ) ( * Nl6arg21 0 ) ) ( * Nl6arg31 0 ) ) ( * ( + 0 ( * Nl6arg11 1 ) ) undef61 ) ( * ( + 0 ( * Nl6arg21 1 ) ) undef62 ) ( * ( + 0 ( * Nl6arg31 1 ) ) undef63 ) ) 0 ) ( <= ( + ( + ( + ( + Nl6CT2 ( * Nl6arg12 0 ) ) ( * Nl6arg22 0 ) ) ( * Nl6arg32 0 ) ) ( * ( + 0 ( * Nl6arg12 1 ) ) undef61 ) ( * ( + 0 ( * Nl6arg22 1 ) ) undef62 ) ( * ( + 0 ( * Nl6arg32 1 ) ) undef63 ) ) 0 ) ) ( and ( <= ( + undef6 ( * ( - 1 ) undef139 ) ) 0 ) ( <= ( + ( * ( - 1 ) undef6 ) undef67 ) 0 ) ( <= ( + ( * ( - 1 ) undef67 ) undef85 ) 0 ) ( <= ( + ( * ( - 1 ) undef68 ) undef85 ) 0 ) ( <= ( + ( * ( - 1 ) undef68 ) undef86 ) 0 ) ( <= ( + ( * ( - 1 ) undef86 ) undef100 ) 0 ) ( <= ( * ( - 1 ) undef90 ) 0 ) ( <= ( + 1 ( * ( - 1 ) undef6 ) ) 0 ) ( <= ( + 1 ( * ( - 1 ) undef67 ) ) 0 ) ( <= ( + 1 ( * ( - 1 ) undef72 ) ) 0 ) ( <= ( + 1 ( * ( - 1 ) undef85 ) ) 0 ) ( <= ( + 1 ( * ( - 1 ) undef86 ) ) 0 ) ( <= ( + 1 undef90 ( * ( - 1 ) undef91 ) ) 0 ) ( <= ( + 1 ( * ( - 1 ) undef100 ) ) 0 ) ( <= ( + 1 ( * ( - 1 ) undef105 ) ) 0 ) ( <= ( + 1 ( * ( - 1 ) undef139 ) ) 0 ) ( <= ( + 1 ( * ( - 1 ) undef140 ) ) 0 ) ( <= ( + 2 ( * ( - 1 ) undef68 ) ) 0 ) ( <= ( + 2 ( * ( - 1 ) undef68 ) undef69 ) 0 ) ( <= ( + 2 ( * ( - 1 ) undef68 ) undef89 ) 0 ) ( <= ( + 2 undef69 ( * ( - 1 ) undef86 ) ) 0 ) ( <= ( + 2 ( * ( - 1 ) undef86 ) undef89 ) 0 ) ( <= ( + ( + ( + ( + Nl6CT1 ( * Nl6arg11 0 ) ) ( * Nl6arg21 0 ) ) ( * Nl6arg31 0 ) ) ( * ( + 0 ( * Nl6arg11 1 ) ) undef67 ) ( * ( + 0 ( * Nl6arg21 1 ) ) undef68 ) ( * ( + 0 ( * Nl6arg31 1 ) ) undef69 ) ) 0 ) ( <= ( + ( + ( + ( + Nl6CT2 ( * Nl6arg12 0 ) ) ( * Nl6arg22 0 ) ) ( * Nl6arg32 0 ) ) ( * ( + 0 ( * Nl6arg12 1 ) ) undef67 ) ( * ( + 0 ( * Nl6arg22 1 ) ) undef68 ) ( * ( + 0 ( * Nl6arg32 1 ) ) undef69 ) ) 0 ) ) ( and ( <= ( + undef6 ( * ( - 1 ) undef139 ) ) 0 ) ( <= ( + ( * ( - 1 ) undef6 ) undef73 ) 0 ) ( <= ( + ( * ( - 1 ) undef73 ) undef85 ) 0 ) ( <= ( + ( * ( - 1 ) undef74 ) undef85 ) 0 ) ( <= ( + ( * ( - 1 ) undef74 ) undef86 ) 0 ) ( <= ( + ( * ( - 1 ) undef86 ) undef100 ) 0 ) ( <= ( * ( - 1 ) undef90 ) 0 ) ( <= ( + 1 ( * ( - 1 ) undef6 ) ) 0 ) ( <= ( + 1 ( * ( - 1 ) undef73 ) ) 0 ) ( <= ( + 1 ( * ( - 1 ) undef78 ) ) 0 ) ( <= ( + 1 ( * ( - 1 ) undef85 ) ) 0 ) ( <= ( + 1 undef90 ( * ( - 1 ) undef91 ) ) 0 ) ( <= ( + 1 ( * ( - 1 ) undef100 ) ) 0 ) ( <= ( + 1 ( * ( - 1 ) undef105 ) ) 0 ) ( <= ( + 1 ( * ( - 1 ) undef139 ) ) 0 ) ( <= ( + 1 ( * ( - 1 ) undef140 ) ) 0 ) ( <= ( + ( - 1 ) ( * ( - 1 ) undef6 ) undef74 ) 0 ) ( <= ( + 2 ( * ( - 1 ) undef74 ) ) 0 ) ( <= ( + 2 ( * ( - 1 ) undef74 ) undef89 ) 0 ) ( <= ( + 2 ( * ( - 1 ) undef86 ) ) 0 ) ( <= ( + 2 ( * ( - 1 ) undef86 ) undef89 ) 0 ) ( <= ( + ( + ( + ( + Nl6CT1 ( * Nl6arg11 0 ) ) ( * Nl6arg21 0 ) ) ( * Nl6arg31 0 ) ) ( * ( + 0 ( * Nl6arg11 1 ) ) undef73 ) ( * ( + 0 ( * Nl6arg21 1 ) ) undef74 ) ) 0 ) ( <= ( + ( + ( + ( + Nl6CT2 ( * Nl6arg12 0 ) ) ( * Nl6arg22 0 ) ) ( * Nl6arg32 0 ) ) ( * ( + 0 ( * Nl6arg12 1 ) ) undef73 ) ( * ( + 0 ( * Nl6arg22 1 ) ) undef74 ) ) 0 ) ) ( and ( <= ( + undef11 ( * ( - 1 ) undef139 ) ) 0 ) ( <= ( + ( * ( - 1 ) undef11 ) undef55 ) 0 ) ( <= ( * ( - 1 ) undef12 ) 0 ) ( <= ( + ( * ( - 1 ) undef55 ) undef85 ) 0 ) ( <= ( + ( * ( - 1 ) undef56 ) undef85 ) 0 ) ( <= ( + ( * ( - 1 ) undef56 ) undef86 ) 0 ) ( <= ( + ( * ( - 1 ) undef86 ) undef100 ) 0 ) ( <= ( * ( - 1 ) undef90 ) 0 ) ( <= ( + 1 ( * ( - 1 ) undef11 ) ) 0 ) ( <= ( + 1 ( * ( - 1 ) undef55 ) ) 0 ) ( <= ( + 1 ( * ( - 1 ) undef60 ) ) 0 ) ( <= ( + 1 ( * ( - 1 ) undef85 ) ) 0 ) ( <= ( + 1 undef90 ( * ( - 1 ) undef91 ) ) 0 ) ( <= ( + 1 ( * ( - 1 ) undef100 ) ) 0 ) ( <= ( + 1 ( * ( - 1 ) undef105 ) ) 0 ) ( <= ( + 1 ( * ( - 1 ) undef139 ) ) 0 ) ( <= ( + 1 ( * ( - 1 ) undef140 ) ) 0 ) ( <= ( + 2 ( * ( - 1 ) undef56 ) undef89 ) 0 ) ( <= ( + 2 ( * ( - 1 ) undef86 ) ) 0 ) ( <= ( + 2 ( * ( - 1 ) undef86 ) undef89 ) 0 ) ( <= ( + 3 ( * ( - 1 ) undef56 ) ) 0 ) ( <= ( + ( + ( + ( + Nl6CT1 ( * Nl6arg11 0 ) ) ( * Nl6arg21 0 ) ) ( * Nl6arg31 0 ) ) ( * ( + 0 ( * Nl6arg11 1 ) ) undef55 ) ( * ( + 0 ( * Nl6arg21 1 ) ) undef56 ) ) 0 ) ( <= ( + ( + ( + ( + Nl6CT2 ( * Nl6arg12 0 ) ) ( * Nl6arg22 0 ) ) ( * Nl6arg32 0 ) ) ( * ( + 0 ( * Nl6arg12 1 ) ) undef55 ) ( * ( + 0 ( * Nl6arg22 1 ) ) undef56 ) ) 0 ) ) ( and ( <= ( + undef11 ( * ( - 1 ) undef139 ) ) 0 ) ( <= ( + ( * ( - 1 ) undef11 ) undef61 ) 0 ) ( <= ( * ( - 1 ) undef12 ) 0 ) ( <= ( + ( * ( - 1 ) undef61 ) undef85 ) 0 ) ( <= ( + ( * ( - 1 ) undef62 ) undef85 ) 0 ) ( <= ( + ( * ( - 1 ) undef62 ) undef86 ) 0 ) ( <= ( + ( * ( - 1 ) undef86 ) undef100 ) 0 ) ( <= ( * ( - 1 ) undef90 ) 0 ) ( <= ( + 1 ( * ( - 1 ) undef11 ) ) 0 ) ( <= ( + 1 ( * ( - 1 ) undef61 ) ) 0 ) ( <= ( + 1 ( * ( - 1 ) undef66 ) ) 0 ) ( <= ( + 1 ( * ( - 1 ) undef85 ) ) 0 ) ( <= ( + 1 ( * ( - 1 ) undef86 ) ) 0 ) ( <= ( + 1 undef90 ( * ( - 1 ) undef91 ) ) 0 ) ( <= ( + 1 ( * ( - 1 ) undef100 ) ) 0 ) ( <= ( + 1 ( * ( - 1 ) undef105 ) ) 0 ) ( <= ( + 1 ( * ( - 1 ) undef139 ) ) 0 ) ( <= ( + 1 ( * ( - 1 ) undef140 ) ) 0 ) ( <= ( + 2 ( * ( - 1 ) undef62 ) undef63 ) 0 ) ( <= ( + 2 ( * ( - 1 ) undef62 ) undef89 ) 0 ) ( <= ( + 2 undef63 ( * ( - 1 ) undef86 ) ) 0 ) ( <= ( + 2 ( * ( - 1 ) undef86 ) undef89 ) 0 ) ( <= ( + 3 ( * ( - 1 ) undef62 ) ) 0 ) ( <= ( + ( + ( + ( + Nl6CT1 ( * Nl6arg11 0 ) ) ( * Nl6arg21 0 ) ) ( * Nl6arg31 0 ) ) ( * ( + 0 ( * Nl6arg11 1 ) ) undef61 ) ( * ( + 0 ( * Nl6arg21 1 ) ) undef62 ) ( * ( + 0 ( * Nl6arg31 1 ) ) undef63 ) ) 0 ) ( <= ( + ( + ( + ( + Nl6CT2 ( * Nl6arg12 0 ) ) ( * Nl6arg22 0 ) ) ( * Nl6arg32 0 ) ) ( * ( + 0 ( * Nl6arg12 1 ) ) undef61 ) ( * ( + 0 ( * Nl6arg22 1 ) ) undef62 ) ( * ( + 0 ( * Nl6arg32 1 ) ) undef63 ) ) 0 ) ) ( and ( <= ( + undef11 ( * ( - 1 ) undef139 ) ) 0 ) ( <= ( + ( * ( - 1 ) undef11 ) undef67 ) 0 ) ( <= ( * ( - 1 ) undef12 ) 0 ) ( <= ( + ( * ( - 1 ) undef67 ) undef85 ) 0 ) ( <= ( + ( * ( - 1 ) undef68 ) undef85 ) 0 ) ( <= ( + ( * ( - 1 ) undef68 ) undef86 ) 0 ) ( <= ( + ( * ( - 1 ) undef86 ) undef100 ) 0 ) ( <= ( * ( - 1 ) undef90 ) 0 ) ( <= ( + 1 ( * ( - 1 ) undef11 ) ) 0 ) ( <= ( + 1 ( * ( - 1 ) undef67 ) ) 0 ) ( <= ( + 1 ( * ( - 1 ) undef72 ) ) 0 ) ( <= ( + 1 ( * ( - 1 ) undef85 ) ) 0 ) ( <= ( + 1 ( * ( - 1 ) undef86 ) ) 0 ) ( <= ( + 1 undef90 ( * ( - 1 ) undef91 ) ) 0 ) ( <= ( + 1 ( * ( - 1 ) undef100 ) ) 0 ) ( <= ( + 1 ( * ( - 1 ) undef105 ) ) 0 ) ( <= ( + 1 ( * ( - 1 ) undef139 ) ) 0 ) ( <= ( + 1 ( * ( - 1 ) undef140 ) ) 0 ) ( <= ( + 2 ( * ( - 1 ) undef68 ) ) 0 ) ( <= ( + 2 ( * ( - 1 ) undef68 ) undef69 ) 0 ) ( <= ( + 2 ( * ( - 1 ) undef68 ) undef89 ) 0 ) ( <= ( + 2 undef69 ( * ( - 1 ) undef86 ) ) 0 ) ( <= ( + 2 ( * ( - 1 ) undef86 ) undef89 ) 0 ) ( <= ( + ( + ( + ( + Nl6CT1 ( * Nl6arg11 0 ) ) ( * Nl6arg21 0 ) ) ( * Nl6arg31 0 ) ) ( * ( + 0 ( * Nl6arg11 1 ) ) undef67 ) ( * ( + 0 ( * Nl6arg21 1 ) ) undef68 ) ( * ( + 0 ( * Nl6arg31 1 ) ) undef69 ) ) 0 ) ( <= ( + ( + ( + ( + Nl6CT2 ( * Nl6arg12 0 ) ) ( * Nl6arg22 0 ) ) ( * Nl6arg32 0 ) ) ( * ( + 0 ( * Nl6arg12 1 ) ) undef67 ) ( * ( + 0 ( * Nl6arg22 1 ) ) undef68 ) ( * ( + 0 ( * Nl6arg32 1 ) ) undef69 ) ) 0 ) ) ( and ( <= ( + undef11 ( * ( - 1 ) undef139 ) ) 0 ) ( <= ( + ( * ( - 1 ) undef11 ) undef73 ) 0 ) ( <= ( * ( - 1 ) undef12 ) 0 ) ( <= ( + ( * ( - 1 ) undef73 ) undef85 ) 0 ) ( <= ( + ( * ( - 1 ) undef74 ) undef85 ) 0 ) ( <= ( + ( * ( - 1 ) undef74 ) undef86 ) 0 ) ( <= ( + ( * ( - 1 ) undef86 ) undef100 ) 0 ) ( <= ( * ( - 1 ) undef90 ) 0 ) ( <= ( + 1 ( * ( - 1 ) undef11 ) ) 0 ) ( <= ( + 1 ( * ( - 1 ) undef73 ) ) 0 ) ( <= ( + 1 ( * ( - 1 ) undef78 ) ) 0 ) ( <= ( + 1 ( * ( - 1 ) undef85 ) ) 0 ) ( <= ( + 1 undef90 ( * ( - 1 ) undef91 ) ) 0 ) ( <= ( + 1 ( * ( - 1 ) undef100 ) ) 0 ) ( <= ( + 1 ( * ( - 1 ) undef105 ) ) 0 ) ( <= ( + 1 ( * ( - 1 ) undef139 ) ) 0 ) ( <= ( + 1 ( * ( - 1 ) undef140 ) ) 0 ) ( <= ( + ( - 1 ) ( * ( - 1 ) undef11 ) undef74 ) 0 ) ( <= ( + 2 ( * ( - 1 ) undef74 ) ) 0 ) ( <= ( + 2 ( * ( - 1 ) undef74 ) undef89 ) 0 ) ( <= ( + 2 ( * ( - 1 ) undef86 ) ) 0 ) ( <= ( + 2 ( * ( - 1 ) undef86 ) undef89 ) 0 ) ( <= ( + ( + ( + ( + Nl6CT1 ( * Nl6arg11 0 ) ) ( * Nl6arg21 0 ) ) ( * Nl6arg31 0 ) ) ( * ( + 0 ( * Nl6arg11 1 ) ) undef73 ) ( * ( + 0 ( * Nl6arg21 1 ) ) undef74 ) ) 0 ) ( <= ( + ( + ( + ( + Nl6CT2 ( * Nl6arg12 0 ) ) ( * Nl6arg22 0 ) ) ( * Nl6arg32 0 ) ) ( * ( + 0 ( * Nl6arg12 1 ) ) undef73 ) ( * ( + 0 ( * Nl6arg22 1 ) ) undef74 ) ) 0 ) ) ))
(assert ( or ( or ( and ( >= lam16n0 0 ) ( >= lam16n1 0 ) ( >= lam16n2 0 ) ( >= lam16n3 0 ) ( >= lam16n4 0 ) ( >= lam16n5 0 ) ( >= lam16n6 0 ) ( >= lam16n7 0 ) ( >= lam16n8 0 ) ( >= lam16n9 0 ) ( >= lam16n10 0 ) ( >= lam16n11 0 ) ( >= lam16n12 0 ) ( >= lam16n13 0 ) ( >= lam16n14 0 ) ( >= lam16n15 0 ) ( >= lam16n16 0 ) ( >= lam16n17 0 ) ( > ( + ( * 1 lam16n5 ) ( * 1 lam16n6 ) ( * 1 lam16n7 ) ( * 1 lam16n8 ) ( * 1 lam16n9 ) ( * 1 lam16n10 ) ( * 1 lam16n11 ) ( * 2 lam16n12 ) ( * 2 lam16n13 ) ( * 2 lam16n14 ) ( * 2 lam16n15 ) ( * Nl6CT1 lam16n16 ) ( * Nl6CT2 lam16n17 ) ( - 1 ) ) 0 ) ( = ( + ( * ( - 1 ) lam16n0 ) ( * ( - 1 ) lam16n5 ) ( * Nl6arg11 lam16n16 ) ( * Nl6arg12 lam16n17 ) ) 0 ) ( = ( + ( * ( - 1 ) lam16n1 ) ( * ( - 1 ) lam16n2 ) ( * ( - 1 ) lam16n6 ) ( * ( - 1 ) lam16n12 ) ( * ( - 1 ) lam16n13 ) ( * Nl6arg21 lam16n16 ) ( * Nl6arg22 lam16n17 ) ) 0 ) ( = ( + ( * 1 lam16n12 ) ( * 1 lam16n14 ) ( * Nl6arg31 lam16n16 ) ( * Nl6arg32 lam16n17 ) ) 0 ) ( = ( + ( * 1 lam16n0 ) ( * 1 lam16n1 ) ( * ( - 1 ) lam16n7 ) ) 0 ) ( = ( + ( * 1 lam16n2 ) ( * ( - 1 ) lam16n3 ) ( * ( - 1 ) lam16n8 ) ( * ( - 1 ) lam16n14 ) ( * ( - 1 ) lam16n15 ) ) 0 ) ( = ( + ( * 1 lam16n13 ) ( * 1 lam16n15 ) ) 0 ) ( = ( + ( * ( - 1 ) lam16n4 ) ( * 1 lam16n9 ) ) 0 ) ( = ( * ( - 1 ) lam16n9 ) 0 ) ( = ( + ( * 1 lam16n3 ) ( * ( - 1 ) lam16n10 ) ) 0 ) ( = ( * ( - 1 ) lam16n11 ) 0 ) ) ( and ( >= lam17n0 0 ) ( >= lam17n1 0 ) ( >= lam17n2 0 ) ( >= lam17n3 0 ) ( >= lam17n4 0 ) ( >= lam17n5 0 ) ( >= lam17n6 0 ) ( >= lam17n7 0 ) ( >= lam17n8 0 ) ( >= lam17n9 0 ) ( >= lam17n10 0 ) ( >= lam17n11 0 ) ( >= lam17n12 0 ) ( >= lam17n13 0 ) ( >= lam17n14 0 ) ( >= lam17n15 0 ) ( >= lam17n16 0 ) ( >= lam17n17 0 ) ( > ( + ( * 1 lam17n5 ) ( * 1 lam17n6 ) ( * 1 lam17n7 ) ( * 1 lam17n8 ) ( * 1 lam17n9 ) ( * 1 lam17n10 ) ( * 1 lam17n11 ) ( * 2 lam17n12 ) ( * 2 lam17n13 ) ( * 2 lam17n14 ) ( * 2 lam17n15 ) ( * Nl6CT1 lam17n16 ) ( * Nl6CT2 lam17n17 ) 1 ) 0 ) ( = ( + ( * ( - 1 ) lam17n0 ) ( * ( - 1 ) lam17n5 ) ( * Nl6arg11 lam17n16 ) ( * Nl6arg12 lam17n17 ) ) 0 ) ( = ( + ( * ( - 1 ) lam17n1 ) ( * ( - 1 ) lam17n2 ) ( * ( - 1 ) lam17n6 ) ( * ( - 1 ) lam17n12 ) ( * ( - 1 ) lam17n13 ) ( * Nl6arg21 lam17n16 ) ( * Nl6arg22 lam17n17 ) ) 0 ) ( = ( + ( * 1 lam17n12 ) ( * 1 lam17n14 ) ( * Nl6arg31 lam17n16 ) ( * Nl6arg32 lam17n17 ) ) 0 ) ( = ( + ( * 1 lam17n0 ) ( * 1 lam17n1 ) ( * ( - 1 ) lam17n7 ) ) 0 ) ( = ( + ( * 1 lam17n2 ) ( * ( - 1 ) lam17n3 ) ( * ( - 1 ) lam17n8 ) ( * ( - 1 ) lam17n14 ) ( * ( - 1 ) lam17n15 ) ) 0 ) ( = ( + ( * 1 lam17n13 ) ( * 1 lam17n15 ) ) 0 ) ( = ( + ( * ( - 1 ) lam17n4 ) ( * 1 lam17n9 ) ) 0 ) ( = ( * ( - 1 ) lam17n9 ) 0 ) ( = ( + ( * 1 lam17n3 ) ( * ( - 1 ) lam17n10 ) ( - 1 ) ) 0 ) ( = ( * ( - 1 ) lam17n11 ) 0 ) ) ) ( and ( or ( and ( <= ( + undef6 ( * ( - 1 ) undef139 ) ) 0 ) ( <= ( + ( * ( - 1 ) undef6 ) undef55 ) 0 ) ( <= ( + ( * ( - 1 ) undef55 ) undef85 ) 0 ) ( <= ( + ( * ( - 1 ) undef56 ) undef85 ) 0 ) ( <= ( + ( * ( - 1 ) undef56 ) undef86 ) 0 ) ( <= ( + ( * ( - 1 ) undef86 ) undef100 ) 0 ) ( <= ( * ( - 1 ) undef90 ) 0 ) ( <= ( + 1 ( * ( - 1 ) undef6 ) ) 0 ) ( <= ( + 1 ( * ( - 1 ) undef55 ) ) 0 ) ( <= ( + 1 ( * ( - 1 ) undef60 ) ) 0 ) ( <= ( + 1 ( * ( - 1 ) undef85 ) ) 0 ) ( <= ( + 1 undef90 ( * ( - 1 ) undef91 ) ) 0 ) ( <= ( + 1 ( * ( - 1 ) undef100 ) ) 0 ) ( <= ( + 1 ( * ( - 1 ) undef105 ) ) 0 ) ( <= ( + 1 ( * ( - 1 ) undef139 ) ) 0 ) ( <= ( + 1 ( * ( - 1 ) undef140 ) ) 0 ) ( <= ( + 2 ( * ( - 1 ) undef56 ) undef89 ) 0 ) ( <= ( + 2 ( * ( - 1 ) undef86 ) ) 0 ) ( <= ( + 2 ( * ( - 1 ) undef86 ) undef89 ) 0 ) ( <= ( + 3 ( * ( - 1 ) undef56 ) ) 0 ) ( <= ( + ( + ( + ( + Nl6CT1 ( * Nl6arg11 0 ) ) ( * Nl6arg21 0 ) ) ( * Nl6arg31 0 ) ) ( * ( + 0 ( * Nl6arg11 1 ) ) undef55 ) ( * ( + 0 ( * Nl6arg21 1 ) ) undef56 ) ) 0 ) ( <= ( + ( + ( + ( + Nl6CT2 ( * Nl6arg12 0 ) ) ( * Nl6arg22 0 ) ) ( * Nl6arg32 0 ) ) ( * ( + 0 ( * Nl6arg12 1 ) ) undef55 ) ( * ( + 0 ( * Nl6arg22 1 ) ) undef56 ) ) 0 ) ) ( and ( <= ( + undef6 ( * ( - 1 ) undef139 ) ) 0 ) ( <= ( + ( * ( - 1 ) undef6 ) undef61 ) 0 ) ( <= ( + ( * ( - 1 ) undef61 ) undef85 ) 0 ) ( <= ( + ( * ( - 1 ) undef62 ) undef85 ) 0 ) ( <= ( + ( * ( - 1 ) undef62 ) undef86 ) 0 ) ( <= ( + ( * ( - 1 ) undef86 ) undef100 ) 0 ) ( <= ( * ( - 1 ) undef90 ) 0 ) ( <= ( + 1 ( * ( - 1 ) undef6 ) ) 0 ) ( <= ( + 1 ( * ( - 1 ) undef61 ) ) 0 ) ( <= ( + 1 ( * ( - 1 ) undef66 ) ) 0 ) ( <= ( + 1 ( * ( - 1 ) undef85 ) ) 0 ) ( <= ( + 1 ( * ( - 1 ) undef86 ) ) 0 ) ( <= ( + 1 undef90 ( * ( - 1 ) undef91 ) ) 0 ) ( <= ( + 1 ( * ( - 1 ) undef100 ) ) 0 ) ( <= ( + 1 ( * ( - 1 ) undef105 ) ) 0 ) ( <= ( + 1 ( * ( - 1 ) undef139 ) ) 0 ) ( <= ( + 1 ( * ( - 1 ) undef140 ) ) 0 ) ( <= ( + 2 ( * ( - 1 ) undef62 ) undef63 ) 0 ) ( <= ( + 2 ( * ( - 1 ) undef62 ) undef89 ) 0 ) ( <= ( + 2 undef63 ( * ( - 1 ) undef86 ) ) 0 ) ( <= ( + 2 ( * ( - 1 ) undef86 ) undef89 ) 0 ) ( <= ( + 3 ( * ( - 1 ) undef62 ) ) 0 ) ( <= ( + ( + ( + ( + Nl6CT1 ( * Nl6arg11 0 ) ) ( * Nl6arg21 0 ) ) ( * Nl6arg31 0 ) ) ( * ( + 0 ( * Nl6arg11 1 ) ) undef61 ) ( * ( + 0 ( * Nl6arg21 1 ) ) undef62 ) ( * ( + 0 ( * Nl6arg31 1 ) ) undef63 ) ) 0 ) ( <= ( + ( + ( + ( + Nl6CT2 ( * Nl6arg12 0 ) ) ( * Nl6arg22 0 ) ) ( * Nl6arg32 0 ) ) ( * ( + 0 ( * Nl6arg12 1 ) ) undef61 ) ( * ( + 0 ( * Nl6arg22 1 ) ) undef62 ) ( * ( + 0 ( * Nl6arg32 1 ) ) undef63 ) ) 0 ) ) ( and ( <= ( + undef6 ( * ( - 1 ) undef139 ) ) 0 ) ( <= ( + ( * ( - 1 ) undef6 ) undef67 ) 0 ) ( <= ( + ( * ( - 1 ) undef67 ) undef85 ) 0 ) ( <= ( + ( * ( - 1 ) undef68 ) undef85 ) 0 ) ( <= ( + ( * ( - 1 ) undef68 ) undef86 ) 0 ) ( <= ( + ( * ( - 1 ) undef86 ) undef100 ) 0 ) ( <= ( * ( - 1 ) undef90 ) 0 ) ( <= ( + 1 ( * ( - 1 ) undef6 ) ) 0 ) ( <= ( + 1 ( * ( - 1 ) undef67 ) ) 0 ) ( <= ( + 1 ( * ( - 1 ) undef72 ) ) 0 ) ( <= ( + 1 ( * ( - 1 ) undef85 ) ) 0 ) ( <= ( + 1 ( * ( - 1 ) undef86 ) ) 0 ) ( <= ( + 1 undef90 ( * ( - 1 ) undef91 ) ) 0 ) ( <= ( + 1 ( * ( - 1 ) undef100 ) ) 0 ) ( <= ( + 1 ( * ( - 1 ) undef105 ) ) 0 ) ( <= ( + 1 ( * ( - 1 ) undef139 ) ) 0 ) ( <= ( + 1 ( * ( - 1 ) undef140 ) ) 0 ) ( <= ( + 2 ( * ( - 1 ) undef68 ) ) 0 ) ( <= ( + 2 ( * ( - 1 ) undef68 ) undef69 ) 0 ) ( <= ( + 2 ( * ( - 1 ) undef68 ) undef89 ) 0 ) ( <= ( + 2 undef69 ( * ( - 1 ) undef86 ) ) 0 ) ( <= ( + 2 ( * ( - 1 ) undef86 ) undef89 ) 0 ) ( <= ( + ( + ( + ( + Nl6CT1 ( * Nl6arg11 0 ) ) ( * Nl6arg21 0 ) ) ( * Nl6arg31 0 ) ) ( * ( + 0 ( * Nl6arg11 1 ) ) undef67 ) ( * ( + 0 ( * Nl6arg21 1 ) ) undef68 ) ( * ( + 0 ( * Nl6arg31 1 ) ) undef69 ) ) 0 ) ( <= ( + ( + ( + ( + Nl6CT2 ( * Nl6arg12 0 ) ) ( * Nl6arg22 0 ) ) ( * Nl6arg32 0 ) ) ( * ( + 0 ( * Nl6arg12 1 ) ) undef67 ) ( * ( + 0 ( * Nl6arg22 1 ) ) undef68 ) ( * ( + 0 ( * Nl6arg32 1 ) ) undef69 ) ) 0 ) ) ( and ( <= ( + undef6 ( * ( - 1 ) undef139 ) ) 0 ) ( <= ( + ( * ( - 1 ) undef6 ) undef73 ) 0 ) ( <= ( + ( * ( - 1 ) undef73 ) undef85 ) 0 ) ( <= ( + ( * ( - 1 ) undef74 ) undef85 ) 0 ) ( <= ( + ( * ( - 1 ) undef74 ) undef86 ) 0 ) ( <= ( + ( * ( - 1 ) undef86 ) undef100 ) 0 ) ( <= ( * ( - 1 ) undef90 ) 0 ) ( <= ( + 1 ( * ( - 1 ) undef6 ) ) 0 ) ( <= ( + 1 ( * ( - 1 ) undef73 ) ) 0 ) ( <= ( + 1 ( * ( - 1 ) undef78 ) ) 0 ) ( <= ( + 1 ( * ( - 1 ) undef85 ) ) 0 ) ( <= ( + 1 undef90 ( * ( - 1 ) undef91 ) ) 0 ) ( <= ( + 1 ( * ( - 1 ) undef100 ) ) 0 ) ( <= ( + 1 ( * ( - 1 ) undef105 ) ) 0 ) ( <= ( + 1 ( * ( - 1 ) undef139 ) ) 0 ) ( <= ( + 1 ( * ( - 1 ) undef140 ) ) 0 ) ( <= ( + ( - 1 ) ( * ( - 1 ) undef6 ) undef74 ) 0 ) ( <= ( + 2 ( * ( - 1 ) undef74 ) ) 0 ) ( <= ( + 2 ( * ( - 1 ) undef74 ) undef89 ) 0 ) ( <= ( + 2 ( * ( - 1 ) undef86 ) ) 0 ) ( <= ( + 2 ( * ( - 1 ) undef86 ) undef89 ) 0 ) ( <= ( + ( + ( + ( + Nl6CT1 ( * Nl6arg11 0 ) ) ( * Nl6arg21 0 ) ) ( * Nl6arg31 0 ) ) ( * ( + 0 ( * Nl6arg11 1 ) ) undef73 ) ( * ( + 0 ( * Nl6arg21 1 ) ) undef74 ) ) 0 ) ( <= ( + ( + ( + ( + Nl6CT2 ( * Nl6arg12 0 ) ) ( * Nl6arg22 0 ) ) ( * Nl6arg32 0 ) ) ( * ( + 0 ( * Nl6arg12 1 ) ) undef73 ) ( * ( + 0 ( * Nl6arg22 1 ) ) undef74 ) ) 0 ) ) ( and ( <= ( + undef11 ( * ( - 1 ) undef139 ) ) 0 ) ( <= ( + ( * ( - 1 ) undef11 ) undef55 ) 0 ) ( <= ( * ( - 1 ) undef12 ) 0 ) ( <= ( + ( * ( - 1 ) undef55 ) undef85 ) 0 ) ( <= ( + ( * ( - 1 ) undef56 ) undef85 ) 0 ) ( <= ( + ( * ( - 1 ) undef56 ) undef86 ) 0 ) ( <= ( + ( * ( - 1 ) undef86 ) undef100 ) 0 ) ( <= ( * ( - 1 ) undef90 ) 0 ) ( <= ( + 1 ( * ( - 1 ) undef11 ) ) 0 ) ( <= ( + 1 ( * ( - 1 ) undef55 ) ) 0 ) ( <= ( + 1 ( * ( - 1 ) undef60 ) ) 0 ) ( <= ( + 1 ( * ( - 1 ) undef85 ) ) 0 ) ( <= ( + 1 undef90 ( * ( - 1 ) undef91 ) ) 0 ) ( <= ( + 1 ( * ( - 1 ) undef100 ) ) 0 ) ( <= ( + 1 ( * ( - 1 ) undef105 ) ) 0 ) ( <= ( + 1 ( * ( - 1 ) undef139 ) ) 0 ) ( <= ( + 1 ( * ( - 1 ) undef140 ) ) 0 ) ( <= ( + 2 ( * ( - 1 ) undef56 ) undef89 ) 0 ) ( <= ( + 2 ( * ( - 1 ) undef86 ) ) 0 ) ( <= ( + 2 ( * ( - 1 ) undef86 ) undef89 ) 0 ) ( <= ( + 3 ( * ( - 1 ) undef56 ) ) 0 ) ( <= ( + ( + ( + ( + Nl6CT1 ( * Nl6arg11 0 ) ) ( * Nl6arg21 0 ) ) ( * Nl6arg31 0 ) ) ( * ( + 0 ( * Nl6arg11 1 ) ) undef55 ) ( * ( + 0 ( * Nl6arg21 1 ) ) undef56 ) ) 0 ) ( <= ( + ( + ( + ( + Nl6CT2 ( * Nl6arg12 0 ) ) ( * Nl6arg22 0 ) ) ( * Nl6arg32 0 ) ) ( * ( + 0 ( * Nl6arg12 1 ) ) undef55 ) ( * ( + 0 ( * Nl6arg22 1 ) ) undef56 ) ) 0 ) ) ( and ( <= ( + undef11 ( * ( - 1 ) undef139 ) ) 0 ) ( <= ( + ( * ( - 1 ) undef11 ) undef61 ) 0 ) ( <= ( * ( - 1 ) undef12 ) 0 ) ( <= ( + ( * ( - 1 ) undef61 ) undef85 ) 0 ) ( <= ( + ( * ( - 1 ) undef62 ) undef85 ) 0 ) ( <= ( + ( * ( - 1 ) undef62 ) undef86 ) 0 ) ( <= ( + ( * ( - 1 ) undef86 ) undef100 ) 0 ) ( <= ( * ( - 1 ) undef90 ) 0 ) ( <= ( + 1 ( * ( - 1 ) undef11 ) ) 0 ) ( <= ( + 1 ( * ( - 1 ) undef61 ) ) 0 ) ( <= ( + 1 ( * ( - 1 ) undef66 ) ) 0 ) ( <= ( + 1 ( * ( - 1 ) undef85 ) ) 0 ) ( <= ( + 1 ( * ( - 1 ) undef86 ) ) 0 ) ( <= ( + 1 undef90 ( * ( - 1 ) undef91 ) ) 0 ) ( <= ( + 1 ( * ( - 1 ) undef100 ) ) 0 ) ( <= ( + 1 ( * ( - 1 ) undef105 ) ) 0 ) ( <= ( + 1 ( * ( - 1 ) undef139 ) ) 0 ) ( <= ( + 1 ( * ( - 1 ) undef140 ) ) 0 ) ( <= ( + 2 ( * ( - 1 ) undef62 ) undef63 ) 0 ) ( <= ( + 2 ( * ( - 1 ) undef62 ) undef89 ) 0 ) ( <= ( + 2 undef63 ( * ( - 1 ) undef86 ) ) 0 ) ( <= ( + 2 ( * ( - 1 ) undef86 ) undef89 ) 0 ) ( <= ( + 3 ( * ( - 1 ) undef62 ) ) 0 ) ( <= ( + ( + ( + ( + Nl6CT1 ( * Nl6arg11 0 ) ) ( * Nl6arg21 0 ) ) ( * Nl6arg31 0 ) ) ( * ( + 0 ( * Nl6arg11 1 ) ) undef61 ) ( * ( + 0 ( * Nl6arg21 1 ) ) undef62 ) ( * ( + 0 ( * Nl6arg31 1 ) ) undef63 ) ) 0 ) ( <= ( + ( + ( + ( + Nl6CT2 ( * Nl6arg12 0 ) ) ( * Nl6arg22 0 ) ) ( * Nl6arg32 0 ) ) ( * ( + 0 ( * Nl6arg12 1 ) ) undef61 ) ( * ( + 0 ( * Nl6arg22 1 ) ) undef62 ) ( * ( + 0 ( * Nl6arg32 1 ) ) undef63 ) ) 0 ) ) ( and ( <= ( + undef11 ( * ( - 1 ) undef139 ) ) 0 ) ( <= ( + ( * ( - 1 ) undef11 ) undef67 ) 0 ) ( <= ( * ( - 1 ) undef12 ) 0 ) ( <= ( + ( * ( - 1 ) undef67 ) undef85 ) 0 ) ( <= ( + ( * ( - 1 ) undef68 ) undef85 ) 0 ) ( <= ( + ( * ( - 1 ) undef68 ) undef86 ) 0 ) ( <= ( + ( * ( - 1 ) undef86 ) undef100 ) 0 ) ( <= ( * ( - 1 ) undef90 ) 0 ) ( <= ( + 1 ( * ( - 1 ) undef11 ) ) 0 ) ( <= ( + 1 ( * ( - 1 ) undef67 ) ) 0 ) ( <= ( + 1 ( * ( - 1 ) undef72 ) ) 0 ) ( <= ( + 1 ( * ( - 1 ) undef85 ) ) 0 ) ( <= ( + 1 ( * ( - 1 ) undef86 ) ) 0 ) ( <= ( + 1 undef90 ( * ( - 1 ) undef91 ) ) 0 ) ( <= ( + 1 ( * ( - 1 ) undef100 ) ) 0 ) ( <= ( + 1 ( * ( - 1 ) undef105 ) ) 0 ) ( <= ( + 1 ( * ( - 1 ) undef139 ) ) 0 ) ( <= ( + 1 ( * ( - 1 ) undef140 ) ) 0 ) ( <= ( + 2 ( * ( - 1 ) undef68 ) ) 0 ) ( <= ( + 2 ( * ( - 1 ) undef68 ) undef69 ) 0 ) ( <= ( + 2 ( * ( - 1 ) undef68 ) undef89 ) 0 ) ( <= ( + 2 undef69 ( * ( - 1 ) undef86 ) ) 0 ) ( <= ( + 2 ( * ( - 1 ) undef86 ) undef89 ) 0 ) ( <= ( + ( + ( + ( + Nl6CT1 ( * Nl6arg11 0 ) ) ( * Nl6arg21 0 ) ) ( * Nl6arg31 0 ) ) ( * ( + 0 ( * Nl6arg11 1 ) ) undef67 ) ( * ( + 0 ( * Nl6arg21 1 ) ) undef68 ) ( * ( + 0 ( * Nl6arg31 1 ) ) undef69 ) ) 0 ) ( <= ( + ( + ( + ( + Nl6CT2 ( * Nl6arg12 0 ) ) ( * Nl6arg22 0 ) ) ( * Nl6arg32 0 ) ) ( * ( + 0 ( * Nl6arg12 1 ) ) undef67 ) ( * ( + 0 ( * Nl6arg22 1 ) ) undef68 ) ( * ( + 0 ( * Nl6arg32 1 ) ) undef69 ) ) 0 ) ) ( and ( <= ( + undef11 ( * ( - 1 ) undef139 ) ) 0 ) ( <= ( + ( * ( - 1 ) undef11 ) undef73 ) 0 ) ( <= ( * ( - 1 ) undef12 ) 0 ) ( <= ( + ( * ( - 1 ) undef73 ) undef85 ) 0 ) ( <= ( + ( * ( - 1 ) undef74 ) undef85 ) 0 ) ( <= ( + ( * ( - 1 ) undef74 ) undef86 ) 0 ) ( <= ( + ( * ( - 1 ) undef86 ) undef100 ) 0 ) ( <= ( * ( - 1 ) undef90 ) 0 ) ( <= ( + 1 ( * ( - 1 ) undef11 ) ) 0 ) ( <= ( + 1 ( * ( - 1 ) undef73 ) ) 0 ) ( <= ( + 1 ( * ( - 1 ) undef78 ) ) 0 ) ( <= ( + 1 ( * ( - 1 ) undef85 ) ) 0 ) ( <= ( + 1 undef90 ( * ( - 1 ) undef91 ) ) 0 ) ( <= ( + 1 ( * ( - 1 ) undef100 ) ) 0 ) ( <= ( + 1 ( * ( - 1 ) undef105 ) ) 0 ) ( <= ( + 1 ( * ( - 1 ) undef139 ) ) 0 ) ( <= ( + 1 ( * ( - 1 ) undef140 ) ) 0 ) ( <= ( + ( - 1 ) ( * ( - 1 ) undef11 ) undef74 ) 0 ) ( <= ( + 2 ( * ( - 1 ) undef74 ) ) 0 ) ( <= ( + 2 ( * ( - 1 ) undef74 ) undef89 ) 0 ) ( <= ( + 2 ( * ( - 1 ) undef86 ) ) 0 ) ( <= ( + 2 ( * ( - 1 ) undef86 ) undef89 ) 0 ) ( <= ( + ( + ( + ( + Nl6CT1 ( * Nl6arg11 0 ) ) ( * Nl6arg21 0 ) ) ( * Nl6arg31 0 ) ) ( * ( + 0 ( * Nl6arg11 1 ) ) undef73 ) ( * ( + 0 ( * Nl6arg21 1 ) ) undef74 ) ) 0 ) ( <= ( + ( + ( + ( + Nl6CT2 ( * Nl6arg12 0 ) ) ( * Nl6arg22 0 ) ) ( * Nl6arg32 0 ) ) ( * ( + 0 ( * Nl6arg12 1 ) ) undef73 ) ( * ( + 0 ( * Nl6arg22 1 ) ) undef74 ) ) 0 ) ) ) false ) ))
(check-sat)
(exit)
